p cnf 628 2354
1 0
-2 0
-3 0
-4 0
-5 0
-6 0
-7 0
-8 0
-9 0
-10 0
11 12 13 14 0
-11 -12 0
-11 -13 0
-11 -14 0
-12 -13 0
-12 -14 0
-13 -14 0
-1 15 -16 0
1 -15 -16 0
-1 -15 16 0
1 15 16 0
-11 -16 0
1 -15 -17 0
-1 15 -17 0
17 -1 -15 0
17 1 15 0
-12 17 0
-13 17 0
-14 17 0
-2 18 -19 0
2 -18 -19 0
-2 -18 19 0
2 18 19 0
-11 -19 0
2 -20 -21 0
-2 20 -21 0
21 -2 -20 0
21 2 20 0
-12 21 0
-18 22 0
-20 22 0
-23 22 0
-24 22 0
-25 22 0
-26 22 0
-27 22 0
-28 22 0
-29 22 0
30 0
2 -22 -31 0
-2 22 -31 0
-2 -22 31 0
2 22 31 0
-13 31 0
18 32 0
20 32 0
23 32 0
24 32 0
25 32 0
26 32 0
27 32 0
28 32 0
29 32 0
-33 0
-2 32 -34 0
2 -32 -34 0
34 -32 -2 0
2 32 34 0
-14 -34 0
20 -35 -36 0
35 -20 -36 0
-20 -35 36 0
35 20 36 0
-11 -36 0
35 -23 -37 0
23 -35 -37 0
37 -35 -23 0
37 35 23 0
-12 37 0
-20 38 0
-23 38 0
-24 38 0
-25 38 0
-26 38 0
-27 38 0
-28 38 0
-29 38 0
39 0
35 -38 -40 0
-35 38 -40 0
-35 -38 40 0
35 38 40 0
-13 40 0
20 41 0
23 41 0
24 41 0
25 41 0
26 41 0
27 41 0
28 41 0
29 41 0
-42 0
-35 41 -43 0
35 -41 -43 0
43 -41 -35 0
35 41 43 0
-14 -43 0
23 -44 -45 0
44 -23 -45 0
-44 -23 45 0
44 23 45 0
-11 -45 0
44 -24 -46 0
24 -44 -46 0
46 -44 -24 0
46 44 24 0
-12 46 0
-23 47 0
-24 47 0
-25 47 0
-26 47 0
-27 47 0
-28 47 0
-29 47 0
48 0
44 -47 -49 0
-44 47 -49 0
-44 -47 49 0
44 47 49 0
-13 49 0
23 50 0
24 50 0
25 50 0
26 50 0
27 50 0
28 50 0
29 50 0
-51 0
-44 50 -52 0
44 -50 -52 0
52 -50 -44 0
44 50 52 0
-14 -52 0
24 -53 -54 0
53 -24 -54 0
-53 -24 54 0
53 24 54 0
-11 -54 0
53 -25 -55 0
25 -53 -55 0
55 -53 -25 0
55 53 25 0
-12 55 0
-24 56 0
-25 56 0
-26 56 0
-27 56 0
-28 56 0
-29 56 0
24 25 26 27 28 29 -56 0
53 -56 -57 0
-53 56 -57 0
-53 -56 57 0
53 56 57 0
-13 57 0
24 58 0
25 58 0
26 58 0
27 58 0
28 58 0
29 58 0
-59 0
-53 58 -60 0
53 -58 -60 0
60 -58 -53 0
53 58 60 0
-14 -60 0
25 -61 -62 0
61 -25 -62 0
-61 -25 62 0
61 25 62 0
-11 -62 0
61 -26 -63 0
26 -61 -63 0
63 -61 -26 0
63 61 26 0
-12 63 0
-25 64 0
-26 64 0
-27 64 0
-28 64 0
-29 64 0
25 26 27 28 29 -64 0
61 -64 -65 0
-61 64 -65 0
-61 -64 65 0
61 64 65 0
-13 65 0
25 66 0
26 66 0
27 66 0
28 66 0
29 66 0
-67 0
-61 66 -68 0
61 -66 -68 0
68 -66 -61 0
61 66 68 0
-14 -68 0
26 -69 -70 0
69 -26 -70 0
-69 -26 70 0
69 26 70 0
-11 -70 0
69 -27 -71 0
27 -69 -71 0
71 -69 -27 0
71 69 27 0
-12 71 0
-29 72 0
-28 72 0
-27 72 0
-26 72 0
-25 72 0
29 28 27 26 25 -72 0
69 -72 -73 0
-69 72 -73 0
-69 -72 73 0
69 72 73 0
-13 73 0
-69 66 -74 0
69 -66 -74 0
74 -66 -69 0
69 66 74 0
-14 -74 0
27 -75 -76 0
75 -27 -76 0
-75 -27 76 0
75 27 76 0
-11 -76 0
75 -28 -77 0
28 -75 -77 0
77 -75 -28 0
77 75 28 0
-12 77 0
75 -72 -78 0
-75 72 -78 0
-75 -72 78 0
75 72 78 0
-13 78 0
-75 66 -79 0
75 -66 -79 0
79 -66 -75 0
75 66 79 0
-14 -79 0
28 -80 -81 0
80 -28 -81 0
-80 -28 81 0
80 28 81 0
-11 -81 0
80 -29 -82 0
29 -80 -82 0
82 -80 -29 0
82 80 29 0
-12 82 0
80 -72 -83 0
-80 72 -83 0
-80 -72 83 0
80 72 83 0
-13 83 0
-80 66 -84 0
80 -66 -84 0
84 -66 -80 0
80 66 84 0
-14 -84 0
29 -85 -86 0
85 -29 -86 0
-85 -29 86 0
85 29 86 0
-11 -86 0
85 -25 -87 0
25 -85 -87 0
87 -85 -25 0
87 85 25 0
-12 87 0
85 -72 -88 0
-85 72 -88 0
-85 -72 88 0
85 72 88 0
-13 88 0
-85 66 -89 0
85 -66 -89 0
89 -66 -85 0
85 66 89 0
-14 -89 0
-3 90 -91 0
3 -90 -91 0
-3 -90 91 0
3 90 91 0
-11 -91 0
3 -92 -93 0
-3 92 -93 0
93 -3 -92 0
93 3 92 0
-12 93 0
-90 94 0
-92 94 0
-95 94 0
-96 94 0
-97 94 0
-98 94 0
-99 94 0
-100 94 0
-101 94 0
-102 94 0
103 0
3 -94 -104 0
-3 94 -104 0
-3 -94 104 0
3 94 104 0
-13 104 0
90 105 0
92 105 0
95 105 0
96 105 0
97 105 0
98 105 0
99 105 0
100 105 0
101 105 0
102 105 0
-106 0
-3 105 -107 0
3 -105 -107 0
107 -105 -3 0
3 105 107 0
-14 -107 0
-108 92 -109 0
108 -92 -109 0
-108 -92 109 0
108 92 109 0
-11 -109 0
108 -95 -110 0
-108 95 -110 0
110 -108 -95 0
110 108 95 0
-12 110 0
-92 111 0
-95 111 0
-96 111 0
-97 111 0
-98 111 0
-99 111 0
-100 111 0
-101 111 0
-102 111 0
112 0
108 -111 -113 0
-108 111 -113 0
-108 -111 113 0
108 111 113 0
-13 113 0
92 114 0
95 114 0
96 114 0
97 114 0
98 114 0
99 114 0
100 114 0
101 114 0
102 114 0
-115 0
-108 114 -116 0
108 -114 -116 0
116 -114 -108 0
108 114 116 0
-14 -116 0
-117 95 -118 0
117 -95 -118 0
-117 -95 118 0
117 95 118 0
-11 -118 0
117 -96 -119 0
-117 96 -119 0
119 -117 -96 0
119 117 96 0
-12 119 0
-95 120 0
-96 120 0
-97 120 0
-98 120 0
-99 120 0
-100 120 0
-101 120 0
-102 120 0
121 0
117 -120 -122 0
-117 120 -122 0
-117 -120 122 0
117 120 122 0
-13 122 0
95 123 0
96 123 0
97 123 0
98 123 0
99 123 0
100 123 0
101 123 0
102 123 0
-124 0
-117 123 -125 0
117 -123 -125 0
125 -123 -117 0
117 123 125 0
-14 -125 0
-126 96 -127 0
126 -96 -127 0
-126 -96 127 0
126 96 127 0
-11 -127 0
126 -97 -128 0
-126 97 -128 0
128 -126 -97 0
128 126 97 0
-12 128 0
-96 129 0
-97 129 0
-98 129 0
-99 129 0
-100 129 0
-101 129 0
-102 129 0
130 0
126 -129 -131 0
-126 129 -131 0
-126 -129 131 0
126 129 131 0
-13 131 0
96 132 0
97 132 0
98 132 0
99 132 0
100 132 0
101 132 0
102 132 0
-133 0
-126 132 -134 0
126 -132 -134 0
134 -132 -126 0
126 132 134 0
-14 -134 0
-135 97 -136 0
135 -97 -136 0
-135 -97 136 0
135 97 136 0
-11 -136 0
135 -98 -137 0
-135 98 -137 0
137 -135 -98 0
137 135 98 0
-12 137 0
-97 138 0
-98 138 0
-99 138 0
-100 138 0
-101 138 0
-102 138 0
139 0
135 -138 -140 0
-135 138 -140 0
-135 -138 140 0
135 138 140 0
-13 140 0
97 141 0
98 141 0
99 141 0
100 141 0
101 141 0
102 141 0
-142 0
-135 141 -143 0
135 -141 -143 0
143 -141 -135 0
135 141 143 0
-14 -143 0
-144 98 -145 0
144 -98 -145 0
-144 -98 145 0
144 98 145 0
-11 -145 0
144 -99 -146 0
-144 99 -146 0
146 -144 -99 0
146 144 99 0
-12 146 0
-98 147 0
-99 147 0
-100 147 0
-101 147 0
-102 147 0
98 99 100 101 102 -147 0
144 -147 -148 0
-144 147 -148 0
-144 -147 148 0
144 147 148 0
-13 148 0
98 149 0
99 149 0
100 149 0
101 149 0
102 149 0
-150 0
-144 149 -151 0
144 -149 -151 0
151 -149 -144 0
144 149 151 0
-14 -151 0
-152 99 -153 0
152 -99 -153 0
-152 -99 153 0
152 99 153 0
-11 -153 0
152 -100 -154 0
-152 100 -154 0
154 -152 -100 0
154 152 100 0
-12 154 0
-99 155 0
-100 155 0
-101 155 0
-102 155 0
99 100 101 102 -155 0
152 -155 -156 0
-152 155 -156 0
-152 -155 156 0
152 155 156 0
-13 156 0
99 157 0
100 157 0
101 157 0
102 157 0
-158 0
-152 157 -159 0
152 -157 -159 0
159 -157 -152 0
152 157 159 0
-14 -159 0
-160 100 -161 0
160 -100 -161 0
-160 -100 161 0
160 100 161 0
-11 -161 0
160 -101 -162 0
-160 101 -162 0
162 -160 -101 0
162 160 101 0
-12 162 0
160 -155 -163 0
-160 155 -163 0
-160 -155 163 0
160 155 163 0
-13 163 0
-160 157 -164 0
160 -157 -164 0
164 -157 -160 0
160 157 164 0
-14 -164 0
-165 101 -166 0
165 -101 -166 0
-165 -101 166 0
165 101 166 0
-11 -166 0
165 -102 -167 0
-165 102 -167 0
167 -165 -102 0
167 165 102 0
-12 167 0
165 -155 -168 0
-165 155 -168 0
-165 -155 168 0
165 155 168 0
-13 168 0
-165 157 -169 0
165 -157 -169 0
169 -157 -165 0
165 157 169 0
-14 -169 0
-170 102 -171 0
170 -102 -171 0
-170 -102 171 0
170 102 171 0
-11 -171 0
170 -99 -172 0
-170 99 -172 0
172 -170 -99 0
172 170 99 0
-12 172 0
170 -155 -173 0
-170 155 -173 0
-170 -155 173 0
170 155 173 0
-13 173 0
-170 157 -174 0
170 -157 -174 0
174 -157 -170 0
170 157 174 0
-14 -174 0
-4 175 -176 0
4 -175 -176 0
-4 -175 176 0
4 175 176 0
-11 -176 0
4 -177 -178 0
-4 177 -178 0
178 -4 -177 0
178 4 177 0
-12 178 0
-175 179 0
-177 179 0
-180 179 0
-181 179 0
-182 179 0
-183 179 0
-184 179 0
-185 179 0
-186 179 0
-187 179 0
-188 179 0
189 0
4 -179 -190 0
-4 179 -190 0
-4 -179 190 0
4 179 190 0
-13 190 0
175 191 0
177 191 0
180 191 0
181 191 0
182 191 0
183 191 0
184 191 0
185 191 0
186 191 0
187 191 0
188 191 0
-192 0
-4 191 -193 0
4 -191 -193 0
193 -191 -4 0
4 191 193 0
-14 -193 0
-194 177 -195 0
194 -177 -195 0
-194 -177 195 0
194 177 195 0
-11 -195 0
194 -180 -196 0
-194 180 -196 0
196 -194 -180 0
196 194 180 0
-12 196 0
-177 197 0
-180 197 0
-181 197 0
-182 197 0
-183 197 0
-184 197 0
-185 197 0
-186 197 0
-187 197 0
-188 197 0
198 0
194 -197 -199 0
-194 197 -199 0
-194 -197 199 0
194 197 199 0
-13 199 0
177 200 0
180 200 0
181 200 0
182 200 0
183 200 0
184 200 0
185 200 0
186 200 0
187 200 0
188 200 0
-201 0
-194 200 -202 0
194 -200 -202 0
202 -200 -194 0
194 200 202 0
-14 -202 0
-203 180 -204 0
203 -180 -204 0
-203 -180 204 0
203 180 204 0
-11 -204 0
203 -181 -205 0
-203 181 -205 0
205 -203 -181 0
205 203 181 0
-12 205 0
-180 206 0
-181 206 0
-182 206 0
-183 206 0
-184 206 0
-185 206 0
-186 206 0
-187 206 0
-188 206 0
207 0
203 -206 -208 0
-203 206 -208 0
-203 -206 208 0
203 206 208 0
-13 208 0
180 209 0
181 209 0
182 209 0
183 209 0
184 209 0
185 209 0
186 209 0
187 209 0
188 209 0
-210 0
-203 209 -211 0
203 -209 -211 0
211 -209 -203 0
203 209 211 0
-14 -211 0
-212 181 -213 0
212 -181 -213 0
-212 -181 213 0
212 181 213 0
-11 -213 0
212 -182 -214 0
-212 182 -214 0
214 -212 -182 0
214 212 182 0
-12 214 0
-181 215 0
-182 215 0
-183 215 0
-184 215 0
-185 215 0
-186 215 0
-187 215 0
-188 215 0
216 0
212 -215 -217 0
-212 215 -217 0
-212 -215 217 0
212 215 217 0
-13 217 0
181 218 0
182 218 0
183 218 0
184 218 0
185 218 0
186 218 0
187 218 0
188 218 0
-219 0
-212 218 -220 0
212 -218 -220 0
220 -218 -212 0
212 218 220 0
-14 -220 0
-221 182 -222 0
221 -182 -222 0
-221 -182 222 0
221 182 222 0
-11 -222 0
221 -183 -223 0
-221 183 -223 0
223 -221 -183 0
223 221 183 0
-12 223 0
-182 224 0
-183 224 0
-184 224 0
-185 224 0
-186 224 0
-187 224 0
-188 224 0
225 0
221 -224 -226 0
-221 224 -226 0
-221 -224 226 0
221 224 226 0
-13 226 0
182 227 0
183 227 0
184 227 0
185 227 0
186 227 0
187 227 0
188 227 0
-228 0
-221 227 -229 0
221 -227 -229 0
229 -227 -221 0
221 227 229 0
-14 -229 0
-230 183 -231 0
230 -183 -231 0
-230 -183 231 0
230 183 231 0
-11 -231 0
230 -184 -232 0
-230 184 -232 0
232 -230 -184 0
232 230 184 0
-12 232 0
-183 233 0
-184 233 0
-185 233 0
-186 233 0
-187 233 0
-188 233 0
234 0
230 -233 -235 0
-230 233 -235 0
-230 -233 235 0
230 233 235 0
-13 235 0
183 236 0
184 236 0
185 236 0
186 236 0
187 236 0
188 236 0
-237 0
-230 236 -238 0
230 -236 -238 0
238 -236 -230 0
230 236 238 0
-14 -238 0
-239 184 -240 0
239 -184 -240 0
-239 -184 240 0
239 184 240 0
-11 -240 0
239 -185 -241 0
-239 185 -241 0
241 -239 -185 0
241 239 185 0
-12 241 0
239 -233 -242 0
-239 233 -242 0
-239 -233 242 0
239 233 242 0
-13 242 0
-239 236 -243 0
239 -236 -243 0
243 -236 -239 0
239 236 243 0
-14 -243 0
-244 185 -245 0
244 -185 -245 0
-244 -185 245 0
244 185 245 0
-11 -245 0
244 -186 -246 0
-244 186 -246 0
246 -244 -186 0
246 244 186 0
-12 246 0
244 -233 -247 0
-244 233 -247 0
-244 -233 247 0
244 233 247 0
-13 247 0
-244 236 -248 0
244 -236 -248 0
248 -236 -244 0
244 236 248 0
-14 -248 0
-249 186 -250 0
249 -186 -250 0
-249 -186 250 0
249 186 250 0
-11 -250 0
249 -187 -251 0
-249 187 -251 0
251 -249 -187 0
251 249 187 0
-12 251 0
249 -233 -252 0
-249 233 -252 0
-249 -233 252 0
249 233 252 0
-13 252 0
-249 236 -253 0
249 -236 -253 0
253 -236 -249 0
249 236 253 0
-14 -253 0
-254 187 -255 0
254 -187 -255 0
-254 -187 255 0
254 187 255 0
-11 -255 0
254 -188 -256 0
-254 188 -256 0
256 -254 -188 0
256 254 188 0
-12 256 0
254 -233 -257 0
-254 233 -257 0
-254 -233 257 0
254 233 257 0
-13 257 0
-254 236 -258 0
254 -236 -258 0
258 -236 -254 0
254 236 258 0
-14 -258 0
-259 188 -260 0
259 -188 -260 0
-259 -188 260 0
259 188 260 0
-11 -260 0
259 -183 -261 0
-259 183 -261 0
261 -259 -183 0
261 259 183 0
-12 261 0
259 -233 -262 0
-259 233 -262 0
-259 -233 262 0
259 233 262 0
-13 262 0
-259 236 -263 0
259 -236 -263 0
263 -236 -259 0
259 236 263 0
-14 -263 0
-5 264 -265 0
5 -264 -265 0
-5 -264 265 0
5 264 265 0
-11 -265 0
5 -266 -267 0
-5 266 -267 0
267 -5 -266 0
267 5 266 0
-12 267 0
-29 268 0
-23 268 0
-28 268 0
-27 268 0
-26 268 0
-25 268 0
-24 268 0
-264 268 0
-266 268 0
269 0
5 -268 -270 0
-5 268 -270 0
-5 -268 270 0
5 268 270 0
-13 270 0
23 271 0
24 271 0
25 271 0
26 271 0
27 271 0
28 271 0
29 271 0
264 271 0
266 271 0
-272 0
-5 271 -273 0
5 -271 -273 0
273 -271 -5 0
5 271 273 0
-14 -273 0
-274 266 -275 0
274 -266 -275 0
-274 -266 275 0
274 266 275 0
-11 -275 0
274 -23 -276 0
23 -274 -276 0
276 -274 -23 0
276 274 23 0
-12 276 0
-29 277 0
-23 277 0
-28 277 0
-27 277 0
-26 277 0
-25 277 0
-24 277 0
-266 277 0
278 0
274 -277 -279 0
-274 277 -279 0
-274 -277 279 0
274 277 279 0
-13 279 0
23 280 0
24 280 0
25 280 0
26 280 0
27 280 0
28 280 0
29 280 0
266 280 0
-281 0
-274 280 -282 0
274 -280 -282 0
282 -280 -274 0
274 280 282 0
-14 -282 0
-6 283 -284 0
6 -283 -284 0
-6 -283 284 0
6 283 284 0
-11 -284 0
6 -285 -286 0
-6 285 -286 0
286 -6 -285 0
286 6 285 0
-12 286 0
-283 287 0
-285 287 0
-288 287 0
-289 287 0
-290 287 0
-291 287 0
292 0
6 -287 -293 0
-6 287 -293 0
-6 -287 293 0
6 287 293 0
-13 293 0
283 294 0
285 294 0
288 294 0
289 294 0
290 294 0
291 294 0
-295 0
-6 294 -296 0
6 -294 -296 0
296 -294 -6 0
6 294 296 0
-14 -296 0
-297 285 -298 0
297 -285 -298 0
-297 -285 298 0
297 285 298 0
-11 -298 0
297 -288 -299 0
-297 288 -299 0
299 -297 -288 0
299 297 288 0
-12 299 0
-285 300 0
-288 300 0
-289 300 0
-290 300 0
-291 300 0
285 288 289 290 291 -300 0
297 -300 -301 0
-297 300 -301 0
-297 -300 301 0
297 300 301 0
-13 301 0
285 302 0
288 302 0
289 302 0
290 302 0
291 302 0
-303 0
-297 302 -304 0
297 -302 -304 0
304 -302 -297 0
297 302 304 0
-14 -304 0
-305 288 -306 0
305 -288 -306 0
-305 -288 306 0
305 288 306 0
-11 -306 0
305 -289 -307 0
-305 289 -307 0
307 -305 -289 0
307 305 289 0
-12 307 0
305 -300 -308 0
-305 300 -308 0
-305 -300 308 0
305 300 308 0
-13 308 0
-305 302 -309 0
305 -302 -309 0
309 -302 -305 0
305 302 309 0
-14 -309 0
-310 289 -311 0
310 -289 -311 0
-310 -289 311 0
310 289 311 0
-11 -311 0
310 -290 -312 0
-310 290 -312 0
312 -310 -290 0
312 310 290 0
-12 312 0
310 -300 -313 0
-310 300 -313 0
-310 -300 313 0
310 300 313 0
-13 313 0
-310 302 -314 0
310 -302 -314 0
314 -302 -310 0
310 302 314 0
-14 -314 0
-315 290 -316 0
315 -290 -316 0
-315 -290 316 0
315 290 316 0
-11 -316 0
315 -291 -317 0
-315 291 -317 0
317 -315 -291 0
317 315 291 0
-12 317 0
315 -300 -318 0
-315 300 -318 0
-315 -300 318 0
315 300 318 0
-13 318 0
-315 302 -319 0
315 -302 -319 0
319 -302 -315 0
315 302 319 0
-14 -319 0
-320 291 -321 0
320 -291 -321 0
-320 -291 321 0
320 291 321 0
-11 -321 0
320 -285 -322 0
-320 285 -322 0
322 -320 -285 0
322 320 285 0
-12 322 0
320 -300 -323 0
-320 300 -323 0
-320 -300 323 0
320 300 323 0
-13 323 0
-320 302 -324 0
320 -302 -324 0
324 -302 -320 0
320 302 324 0
-14 -324 0
-7 325 -326 0
7 -325 -326 0
-7 -325 326 0
7 325 326 0
-11 -326 0
7 -327 -328 0
-7 327 -328 0
328 -7 -327 0
328 7 327 0
-12 328 0
-325 329 0
-327 329 0
-330 329 0
-331 329 0
-332 329 0
-333 329 0
-334 329 0
-335 329 0
-336 329 0
-337 329 0
-338 329 0
-339 329 0
340 0
7 -329 -341 0
-7 329 -341 0
-7 -329 341 0
7 329 341 0
-13 341 0
325 342 0
327 342 0
330 342 0
331 342 0
332 342 0
333 342 0
334 342 0
335 342 0
336 342 0
337 342 0
338 342 0
339 342 0
-343 0
-7 342 -344 0
7 -342 -344 0
344 -342 -7 0
7 342 344 0
-14 -344 0
-345 327 -346 0
345 -327 -346 0
-345 -327 346 0
345 327 346 0
-11 -346 0
345 -330 -347 0
-345 330 -347 0
347 -345 -330 0
347 345 330 0
-12 347 0
-327 348 0
-330 348 0
-331 348 0
-332 348 0
-333 348 0
-334 348 0
-335 348 0
-336 348 0
-337 348 0
-338 348 0
-339 348 0
349 0
345 -348 -350 0
-345 348 -350 0
-345 -348 350 0
345 348 350 0
-13 350 0
327 351 0
330 351 0
331 351 0
332 351 0
333 351 0
334 351 0
335 351 0
336 351 0
337 351 0
338 351 0
339 351 0
-352 0
-345 351 -353 0
345 -351 -353 0
353 -351 -345 0
345 351 353 0
-14 -353 0
-354 330 -355 0
354 -330 -355 0
-354 -330 355 0
354 330 355 0
-11 -355 0
354 -331 -356 0
-354 331 -356 0
356 -354 -331 0
356 354 331 0
-12 356 0
-330 357 0
-331 357 0
-332 357 0
-333 357 0
-334 357 0
-335 357 0
-336 357 0
-337 357 0
-338 357 0
-339 357 0
358 0
354 -357 -359 0
-354 357 -359 0
-354 -357 359 0
354 357 359 0
-13 359 0
330 360 0
331 360 0
332 360 0
333 360 0
334 360 0
335 360 0
336 360 0
337 360 0
338 360 0
339 360 0
-361 0
-354 360 -362 0
354 -360 -362 0
362 -360 -354 0
354 360 362 0
-14 -362 0
-363 331 -364 0
363 -331 -364 0
-363 -331 364 0
363 331 364 0
-11 -364 0
363 -332 -365 0
-363 332 -365 0
365 -363 -332 0
365 363 332 0
-12 365 0
-331 366 0
-332 366 0
-333 366 0
-334 366 0
-335 366 0
-336 366 0
-337 366 0
-338 366 0
-339 366 0
367 0
363 -366 -368 0
-363 366 -368 0
-363 -366 368 0
363 366 368 0
-13 368 0
331 369 0
332 369 0
333 369 0
334 369 0
335 369 0
336 369 0
337 369 0
338 369 0
339 369 0
-370 0
-363 369 -371 0
363 -369 -371 0
371 -369 -363 0
363 369 371 0
-14 -371 0
-372 332 -373 0
372 -332 -373 0
-372 -332 373 0
372 332 373 0
-11 -373 0
372 -333 -374 0
-372 333 -374 0
374 -372 -333 0
374 372 333 0
-12 374 0
-332 375 0
-333 375 0
-334 375 0
-335 375 0
-336 375 0
-337 375 0
-338 375 0
-339 375 0
376 0
372 -375 -377 0
-372 375 -377 0
-372 -375 377 0
372 375 377 0
-13 377 0
332 378 0
333 378 0
334 378 0
335 378 0
336 378 0
337 378 0
338 378 0
339 378 0
-379 0
-372 378 -380 0
372 -378 -380 0
380 -378 -372 0
372 378 380 0
-14 -380 0
-381 333 -382 0
381 -333 -382 0
-381 -333 382 0
381 333 382 0
-11 -382 0
381 -334 -383 0
-381 334 -383 0
383 -381 -334 0
383 381 334 0
-12 383 0
-333 384 0
-334 384 0
-335 384 0
-336 384 0
-337 384 0
-338 384 0
-339 384 0
385 0
381 -384 -386 0
-381 384 -386 0
-381 -384 386 0
381 384 386 0
-13 386 0
333 387 0
334 387 0
335 387 0
336 387 0
337 387 0
338 387 0
339 387 0
-388 0
-381 387 -389 0
381 -387 -389 0
389 -387 -381 0
381 387 389 0
-14 -389 0
-390 334 -391 0
390 -334 -391 0
-390 -334 391 0
390 334 391 0
-11 -391 0
390 -335 -392 0
-390 335 -392 0
392 -390 -335 0
392 390 335 0
-12 392 0
-334 393 0
-335 393 0
-336 393 0
-337 393 0
-338 393 0
-339 393 0
394 0
390 -393 -395 0
-390 393 -395 0
-390 -393 395 0
390 393 395 0
-13 395 0
334 396 0
335 396 0
336 396 0
337 396 0
338 396 0
339 396 0
-397 0
-390 396 -398 0
390 -396 -398 0
398 -396 -390 0
390 396 398 0
-14 -398 0
-399 335 -400 0
399 -335 -400 0
-399 -335 400 0
399 335 400 0
-11 -400 0
399 -336 -401 0
-399 336 -401 0
401 -399 -336 0
401 399 336 0
-12 401 0
399 -393 -402 0
-399 393 -402 0
-399 -393 402 0
399 393 402 0
-13 402 0
-399 396 -403 0
399 -396 -403 0
403 -396 -399 0
399 396 403 0
-14 -403 0
-404 336 -405 0
404 -336 -405 0
-404 -336 405 0
404 336 405 0
-11 -405 0
404 -337 -406 0
-404 337 -406 0
406 -404 -337 0
406 404 337 0
-12 406 0
404 -393 -407 0
-404 393 -407 0
-404 -393 407 0
404 393 407 0
-13 407 0
-404 396 -408 0
404 -396 -408 0
408 -396 -404 0
404 396 408 0
-14 -408 0
-409 337 -410 0
409 -337 -410 0
-409 -337 410 0
409 337 410 0
-11 -410 0
409 -338 -411 0
-409 338 -411 0
411 -409 -338 0
411 409 338 0
-12 411 0
409 -393 -412 0
-409 393 -412 0
-409 -393 412 0
409 393 412 0
-13 412 0
-409 396 -413 0
409 -396 -413 0
413 -396 -409 0
409 396 413 0
-14 -413 0
-414 338 -415 0
414 -338 -415 0
-414 -338 415 0
414 338 415 0
-11 -415 0
414 -339 -416 0
-414 339 -416 0
416 -414 -339 0
416 414 339 0
-12 416 0
414 -393 -417 0
-414 393 -417 0
-414 -393 417 0
414 393 417 0
-13 417 0
-414 396 -418 0
414 -396 -418 0
418 -396 -414 0
414 396 418 0
-14 -418 0
-419 339 -420 0
419 -339 -420 0
-419 -339 420 0
419 339 420 0
-11 -420 0
419 -334 -421 0
-419 334 -421 0
421 -419 -334 0
421 419 334 0
-12 421 0
419 -393 -422 0
-419 393 -422 0
-419 -393 422 0
419 393 422 0
-13 422 0
-419 396 -423 0
419 -396 -423 0
423 -396 -419 0
419 396 423 0
-14 -423 0
-8 424 -425 0
8 -424 -425 0
-8 -424 425 0
8 424 425 0
-11 -425 0
8 -426 -427 0
-8 426 -427 0
427 -8 -426 0
427 8 426 0
-12 427 0
-424 428 0
-426 428 0
-429 428 0
-430 428 0
-431 428 0
-432 428 0
-433 428 0
434 0
8 -428 -435 0
-8 428 -435 0
-8 -428 435 0
8 428 435 0
-13 435 0
424 436 0
426 436 0
429 436 0
430 436 0
431 436 0
432 436 0
433 436 0
-437 0
-8 436 -438 0
8 -436 -438 0
438 -436 -8 0
8 436 438 0
-14 -438 0
-439 426 -440 0
439 -426 -440 0
-439 -426 440 0
439 426 440 0
-11 -440 0
439 -429 -441 0
-439 429 -441 0
441 -439 -429 0
441 439 429 0
-12 441 0
-426 442 0
-429 442 0
-430 442 0
-431 442 0
-432 442 0
-433 442 0
443 0
439 -442 -444 0
-439 442 -444 0
-439 -442 444 0
439 442 444 0
-13 444 0
426 445 0
429 445 0
430 445 0
431 445 0
432 445 0
433 445 0
-446 0
-439 445 -447 0
439 -445 -447 0
447 -445 -439 0
439 445 447 0
-14 -447 0
-448 429 -449 0
448 -429 -449 0
-448 -429 449 0
448 429 449 0
-11 -449 0
448 -430 -450 0
-448 430 -450 0
450 -448 -430 0
450 448 430 0
-12 450 0
-429 451 0
-430 451 0
-431 451 0
-432 451 0
-433 451 0
429 430 431 432 433 -451 0
448 -451 -452 0
-448 451 -452 0
-448 -451 452 0
448 451 452 0
-13 452 0
429 453 0
430 453 0
431 453 0
432 453 0
433 453 0
-454 0
-448 453 -455 0
448 -453 -455 0
455 -453 -448 0
448 453 455 0
-14 -455 0
-456 430 -457 0
456 -430 -457 0
-456 -430 457 0
456 430 457 0
-11 -457 0
456 -431 -458 0
-456 431 -458 0
458 -456 -431 0
458 456 431 0
-12 458 0
-430 459 0
-431 459 0
-432 459 0
-433 459 0
430 431 432 433 -459 0
456 -459 -460 0
-456 459 -460 0
-456 -459 460 0
456 459 460 0
-13 460 0
430 461 0
431 461 0
432 461 0
433 461 0
-462 0
-456 461 -463 0
456 -461 -463 0
463 -461 -456 0
456 461 463 0
-14 -463 0
-464 431 -465 0
464 -431 -465 0
-464 -431 465 0
464 431 465 0
-11 -465 0
464 -432 -466 0
-464 432 -466 0
466 -464 -432 0
466 464 432 0
-12 466 0
-431 467 0
-432 467 0
-433 467 0
431 432 433 -467 0
464 -467 -468 0
-464 467 -468 0
-464 -467 468 0
464 467 468 0
-13 468 0
431 469 0
432 469 0
433 469 0
-431 -432 -433 -469 0
-464 469 -470 0
464 -469 -470 0
470 -469 -464 0
464 469 470 0
-14 -470 0
-471 432 -472 0
471 -432 -472 0
-471 -432 472 0
471 432 472 0
-11 -472 0
471 -433 -473 0
-471 433 -473 0
473 -471 -433 0
473 471 433 0
-12 473 0
-432 474 0
-433 474 0
432 433 -474 0
471 -474 -475 0
-471 474 -475 0
-471 -474 475 0
471 474 475 0
-13 475 0
432 476 0
433 476 0
-432 -433 -476 0
-471 476 -477 0
471 -476 -477 0
477 -476 -471 0
471 476 477 0
-14 -477 0
-478 433 -479 0
478 -433 -479 0
-478 -433 479 0
478 433 479 0
-11 -479 0
478 -432 -480 0
-478 432 -480 0
480 -478 -432 0
480 478 432 0
-12 480 0
478 -474 -481 0
-478 474 -481 0
-478 -474 481 0
478 474 481 0
-13 481 0
-478 476 -482 0
478 -476 -482 0
482 -476 -478 0
478 476 482 0
-14 -482 0
-9 483 -484 0
9 -483 -484 0
-9 -483 484 0
9 483 484 0
-11 -484 0
9 -485 -486 0
-9 485 -486 0
486 -9 -485 0
486 9 485 0
-12 486 0
-483 487 0
-485 487 0
-488 487 0
-489 487 0
-490 487 0
-491 487 0
-492 487 0
-493 487 0
-494 487 0
-495 487 0
-496 487 0
-497 487 0
498 0
9 -487 -499 0
-9 487 -499 0
-9 -487 499 0
9 487 499 0
-13 499 0
483 500 0
485 500 0
488 500 0
489 500 0
490 500 0
491 500 0
492 500 0
493 500 0
494 500 0
495 500 0
496 500 0
497 500 0
-501 0
-9 500 -502 0
9 -500 -502 0
502 -500 -9 0
9 500 502 0
-14 -502 0
-503 485 -504 0
503 -485 -504 0
-503 -485 504 0
503 485 504 0
-11 -504 0
503 -488 -505 0
-503 488 -505 0
505 -503 -488 0
505 503 488 0
-12 505 0
-485 506 0
-488 506 0
-489 506 0
-490 506 0
-491 506 0
-492 506 0
-493 506 0
-494 506 0
-495 506 0
-496 506 0
-497 506 0
507 0
503 -506 -508 0
-503 506 -508 0
-503 -506 508 0
503 506 508 0
-13 508 0
485 509 0
488 509 0
489 509 0
490 509 0
491 509 0
492 509 0
493 509 0
494 509 0
495 509 0
496 509 0
497 509 0
-510 0
-503 509 -511 0
503 -509 -511 0
511 -509 -503 0
503 509 511 0
-14 -511 0
-512 488 -513 0
512 -488 -513 0
-512 -488 513 0
512 488 513 0
-11 -513 0
512 -489 -514 0
-512 489 -514 0
514 -512 -489 0
514 512 489 0
-12 514 0
-488 515 0
-489 515 0
-490 515 0
-491 515 0
-492 515 0
-493 515 0
-494 515 0
-495 515 0
-496 515 0
-497 515 0
516 0
512 -515 -517 0
-512 515 -517 0
-512 -515 517 0
512 515 517 0
-13 517 0
488 518 0
489 518 0
490 518 0
491 518 0
492 518 0
493 518 0
494 518 0
495 518 0
496 518 0
497 518 0
-519 0
-512 518 -520 0
512 -518 -520 0
520 -518 -512 0
512 518 520 0
-14 -520 0
-521 489 -522 0
521 -489 -522 0
-521 -489 522 0
521 489 522 0
-11 -522 0
521 -490 -523 0
-521 490 -523 0
523 -521 -490 0
523 521 490 0
-12 523 0
-489 524 0
-490 524 0
-491 524 0
-492 524 0
-493 524 0
-494 524 0
-495 524 0
-496 524 0
-497 524 0
525 0
521 -524 -526 0
-521 524 -526 0
-521 -524 526 0
521 524 526 0
-13 526 0
489 527 0
490 527 0
491 527 0
492 527 0
493 527 0
494 527 0
495 527 0
496 527 0
497 527 0
-528 0
-521 527 -529 0
521 -527 -529 0
529 -527 -521 0
521 527 529 0
-14 -529 0
-530 490 -531 0
530 -490 -531 0
-530 -490 531 0
530 490 531 0
-11 -531 0
530 -491 -532 0
-530 491 -532 0
532 -530 -491 0
532 530 491 0
-12 532 0
-490 533 0
-491 533 0
-492 533 0
-493 533 0
-494 533 0
-495 533 0
-496 533 0
-497 533 0
534 0
530 -533 -535 0
-530 533 -535 0
-530 -533 535 0
530 533 535 0
-13 535 0
490 536 0
491 536 0
492 536 0
493 536 0
494 536 0
495 536 0
496 536 0
497 536 0
-537 0
-530 536 -538 0
530 -536 -538 0
538 -536 -530 0
530 536 538 0
-14 -538 0
-539 491 -540 0
539 -491 -540 0
-539 -491 540 0
539 491 540 0
-11 -540 0
539 -492 -541 0
-539 492 -541 0
541 -539 -492 0
541 539 492 0
-12 541 0
-491 542 0
-492 542 0
-493 542 0
-494 542 0
-495 542 0
-496 542 0
-497 542 0
543 0
539 -542 -544 0
-539 542 -544 0
-539 -542 544 0
539 542 544 0
-13 544 0
491 545 0
492 545 0
493 545 0
494 545 0
495 545 0
496 545 0
497 545 0
-546 0
-539 545 -547 0
539 -545 -547 0
547 -545 -539 0
539 545 547 0
-14 -547 0
-548 492 -549 0
548 -492 -549 0
-548 -492 549 0
548 492 549 0
-11 -549 0
548 -493 -550 0
-548 493 -550 0
550 -548 -493 0
550 548 493 0
-12 550 0
-492 551 0
-493 551 0
-494 551 0
-495 551 0
-496 551 0
-497 551 0
552 0
548 -551 -553 0
-548 551 -553 0
-548 -551 553 0
548 551 553 0
-13 553 0
492 554 0
493 554 0
494 554 0
495 554 0
496 554 0
497 554 0
-555 0
-548 554 -556 0
548 -554 -556 0
556 -554 -548 0
548 554 556 0
-14 -556 0
-557 493 -558 0
557 -493 -558 0
-557 -493 558 0
557 493 558 0
-11 -558 0
557 -494 -559 0
-557 494 -559 0
559 -557 -494 0
559 557 494 0
-12 559 0
557 -551 -560 0
-557 551 -560 0
-557 -551 560 0
557 551 560 0
-13 560 0
-557 554 -561 0
557 -554 -561 0
561 -554 -557 0
557 554 561 0
-14 -561 0
-562 494 -563 0
562 -494 -563 0
-562 -494 563 0
562 494 563 0
-11 -563 0
562 -495 -564 0
-562 495 -564 0
564 -562 -495 0
564 562 495 0
-12 564 0
562 -551 -565 0
-562 551 -565 0
-562 -551 565 0
562 551 565 0
-13 565 0
-562 554 -566 0
562 -554 -566 0
566 -554 -562 0
562 554 566 0
-14 -566 0
-567 495 -568 0
567 -495 -568 0
-567 -495 568 0
567 495 568 0
-11 -568 0
567 -496 -569 0
-567 496 -569 0
569 -567 -496 0
569 567 496 0
-12 569 0
567 -551 -570 0
-567 551 -570 0
-567 -551 570 0
567 551 570 0
-13 570 0
-567 554 -571 0
567 -554 -571 0
571 -554 -567 0
567 554 571 0
-14 -571 0
-572 496 -573 0
572 -496 -573 0
-572 -496 573 0
572 496 573 0
-11 -573 0
572 -497 -574 0
-572 497 -574 0
574 -572 -497 0
574 572 497 0
-12 574 0
572 -551 -575 0
-572 551 -575 0
-572 -551 575 0
572 551 575 0
-13 575 0
-572 554 -576 0
572 -554 -576 0
576 -554 -572 0
572 554 576 0
-14 -576 0
-577 497 -578 0
577 -497 -578 0
-577 -497 578 0
577 497 578 0
-11 -578 0
577 -492 -579 0
-577 492 -579 0
579 -577 -492 0
579 577 492 0
-12 579 0
577 -551 -580 0
-577 551 -580 0
-577 -551 580 0
577 551 580 0
-13 580 0
-577 554 -581 0
577 -554 -581 0
581 -554 -577 0
577 554 581 0
-14 -581 0
-10 582 -583 0
10 -582 -583 0
-10 -582 583 0
10 582 583 0
-11 -583 0
10 -584 -585 0
-10 584 -585 0
585 -10 -584 0
585 10 584 0
-12 585 0
-99 586 0
-100 586 0
-101 586 0
-102 586 0
-582 586 0
-584 586 0
-587 586 0
-588 586 0
589 0
10 -586 -590 0
-10 586 -590 0
-10 -586 590 0
10 586 590 0
-13 590 0
99 591 0
100 591 0
101 591 0
102 591 0
582 591 0
584 591 0
587 591 0
588 591 0
-592 0
-10 591 -593 0
10 -591 -593 0
593 -591 -10 0
10 591 593 0
-14 -593 0
-594 584 -595 0
594 -584 -595 0
-594 -584 595 0
594 584 595 0
-11 -595 0
594 -587 -596 0
-594 587 -596 0
596 -594 -587 0
596 594 587 0
-12 596 0
-99 597 0
-100 597 0
-101 597 0
-102 597 0
-584 597 0
-587 597 0
-588 597 0
598 0
594 -597 -599 0
-594 597 -599 0
-594 -597 599 0
594 597 599 0
-13 599 0
99 600 0
100 600 0
101 600 0
102 600 0
584 600 0
587 600 0
588 600 0
-601 0
-594 600 -602 0
594 -600 -602 0
602 -600 -594 0
594 600 602 0
-14 -602 0
-603 587 -604 0
603 -587 -604 0
-603 -587 604 0
603 587 604 0
-11 -604 0
603 -588 -605 0
-603 588 -605 0
605 -603 -588 0
605 603 588 0
-12 605 0
-99 606 0
-100 606 0
-101 606 0
-102 606 0
-587 606 0
-588 606 0
607 0
603 -606 -608 0
-603 606 -608 0
-603 -606 608 0
603 606 608 0
-13 608 0
99 609 0
100 609 0
101 609 0
102 609 0
587 609 0
588 609 0
-610 0
-603 609 -611 0
603 -609 -611 0
611 -609 -603 0
603 609 611 0
-14 -611 0
-612 588 -613 0
612 -588 -613 0
-612 -588 613 0
612 588 613 0
-11 -613 0
612 -100 -614 0
-612 100 -614 0
614 -612 -100 0
614 612 100 0
-12 614 0
-99 615 0
-100 615 0
-101 615 0
-102 615 0
-588 615 0
99 100 101 102 588 -615 0
612 -615 -616 0
-612 615 -616 0
-612 -615 616 0
612 615 616 0
-13 616 0
99 617 0
100 617 0
101 617 0
102 617 0
588 617 0
-618 0
-612 617 -619 0
612 -617 -619 0
619 -617 -612 0
612 617 619 0
-14 -619 0
15 -620 0
-620 -18 0
20 -620 0
23 -620 0
24 -620 0
25 -620 0
-620 -26 0
27 -620 0
28 -620 0
-620 -29 0
90 -620 0
92 -620 0
-620 -95 0
-620 -96 0
-620 -97 0
-620 -98 0
99 -620 0
-620 -100 0
-620 -101 0
102 -620 0
175 -620 0
177 -620 0
-620 -180 0
181 -620 0
182 -620 0
183 -620 0
184 -620 0
185 -620 0
186 -620 0
-620 -187 0
-620 -188 0
-620 -264 0
-620 -266 0
-620 -283 0
-620 -285 0
-620 -288 0
289 -620 0
290 -620 0
291 -620 0
325 -620 0
-620 -327 0
330 -620 0
-620 -331 0
332 -620 0
-620 -333 0
334 -620 0
-620 -335 0
-620 -336 0
-620 -337 0
-620 -338 0
339 -620 0
-620 -424 0
-620 -426 0
-620 -429 0
430 -620 0
431 -620 0
432 -620 0
-620 -433 0
-620 -483 0
-620 -485 0
488 -620 0
-620 -489 0
-620 -490 0
-620 -491 0
-620 -492 0
-620 -493 0
494 -620 0
-620 -495 0
496 -620 0
497 -620 0
582 -620 0
584 -620 0
587 -620 0
-620 -588 0
620 0
-621 0
-622 0
-623 0
-624 0
-625 0
-626 0
-627 0
-628 0
